1 10 30
1180
  1.1   0.4  34.9 13663.7   0.0
  0.3 3643.6  98.6
  0.4 5217.1 141.2
  0.3 4005.4 108.4
  0.2 1869.1  50.6
  0.4 5008.8 135.5
  0.3 3605.6  97.6
  0.4 4553.4 123.2
  0.2 2629.2  71.1
  0.3 3103.6  84.0
  0.2 1988.0  53.8
  712
  949
 1321
  650
 1062
 1045
 1112
 1068
  606
  599
  756
 1495
 1486
 1412
 1186
 1443
 1011
  505
 1007
  910
 1109
 1464
  532
 1115
  861
 1486
  672
 1158
  695
 1104
